10	5
0	2	1	2
1	1	4
2	2	4	3
3	4	8	9	6	5
4	2	10	9
5	1	7
6	1	11
7	1	11
8	1	11
9	1	11
10	1	11
11	0
0	0	0	0	0	0	0
1	5	0	0	0	2	2
2	1	0	0	0	4	0
3	3	5	1	0	5	0
4	5	0	0	0	3	0
5	9	0	3	5	0	5
6	3	0	3	0	1	0
7	9	1	0	2	2	0
8	1	0	0	3	0	0
9	9	5	5	1	3	5
10	4	5	2	4	0	2
11	0	0	0	0	0	0
7	6	6	5	6
